12 15 94 55 68 54 
7 64 30 90 52 83 5 
33 51 69 9 95 58 
31 27 14 6 43 
98 59 42 38 97 25 
19 11 41 3 50 
34 36 49 46 
23 67 35 
73 45 10 66 20 
29 76 39 26 80 77 1 
63 32 88 48 47 96 37 
85 61 44 99 22 74 13 93 
28 92 87 57 56 4 21 
82 62 53 91 16 100 
86 40 81 70 
65 18 89 60 17 
72 75 78 79 71 24 
2 8 84 

